;  time  = 559.462881565094
;  terms = 17
;  score = 559.462881565094
;  stdout= sat

(set-logic QF_FP)
(declare-const x0 (_ FloatingPoint 8 24))
(declare-const x1 (_ FloatingPoint 8 24))
(declare-const x2 (_ FloatingPoint 8 24))
(declare-const x3 (_ FloatingPoint 8 24))
(assert (not (fp.isNaN x0)))
(assert (not (fp.isInfinite x0)))
(assert (not (fp.isZero x0)))
(assert (not (fp.isNaN x1)))
(assert (not (fp.isInfinite x1)))
(assert (not (fp.isZero x1)))
(assert (not (fp.isNaN x2)))
(assert (not (fp.isInfinite x2)))
(assert (not (fp.isZero x2)))
(assert (not (fp.isNaN x3)))
(assert (not (fp.isInfinite x3)))
(assert (not (fp.isZero x3)))
(assert (fp.isPositive (fp.rem (fp.add RNE (fp.abs x1) (fp.rem x2 x1)) (fp.fma RNE (fp.sub RNE x1 x3) (fp.roundToIntegral RNE x2) (fp.rem x3 x0)))))
(check-sat)